Please solve the following SAT Problem encoded in DIMACS format, only return a single solution assignment without explanations, if there is any: 
p cnf 5 14
-3 -4 -1 0
-3 4 -2 0
1 4 5 0
-2 5 1 0
-2 -3 4 0
1 4 -2 0
3 -2 1 0
5 -2 4 0
5 1 -2 0
5 1 -3 0
-1 -2 -4 0
-4 2 5 0
4 1 -3 0
5 -3 -2 0

